8 4 1 1 111111
15 2 1 3 4 2 2 3 7 4 5 2 2 3 4 3 3 1 4 2 5 4 3 3 1 3 3 7 4 1 2 1 6 3 4 3 1 1 2 1 4 3 2 1 7 4 3 2 1 6 4 5 3 1 3 3 3 4 6 2 1 6 3 3 2 3 4 4 4 2 2 7 3 1 2 1 5 4 3 2 1 3 3 4 
15 2 3 3 4 1 2 1 4 3 3 3 1 6 2 4 3 7 2 1 1 3 3 2 2 3 4 7 2 1 6 2 3 2 1 1 4 3 3 1 5 3 3 4 1 2 1 7 3 2 2 1 4 2 6 2 1 3 2 7 2 2 5 3 1 2 2 1 4 1 2 1 3 3 1 2 1 5 2 3 
15 2 3 6 4 7 2 3 7 4 2 2 2 3 4 1 2 2 5 3 2 2 1 5 4 5 2 1 1 2 5 2 2 4 3 2 2 3 4 4 1 3 1 1 2 2 3 2 2 3 5 4 3 2 2 3 4 7 2 2 5 4 6 2 3 7 4 4 3 2 4 3 1 4 6 2 1 5 4 1 
15 2 3 4 4 7 2 2 4 4 3 3 1 4 2 7 4 3 2 3 3 4 2 2 2 2 3 1 2 2 1 3 4 3 1 2 3 6 4 4 2 2 7 4 3 2 1 6 4 2 2 2 2 3 1 2 2 6 4 6 2 1 7 3 7 2 2 6 4 3 3 1 3 2 1 3 7 2 1 7 4 2 
15 2 1 2 3 4 2 3 2 4 7 2 2 6 4 7 2 2 7 4 6 2 2 1 4 2 2 1 6 4 3 2 1 4 2 2 2 1 7 2 6 2 1 1 3 5 3 2 6 3 1 4 1 2 1 7 4 3 2 1 6 3 6 2 2 5 4 1 2 2 6 3 5 2 2 4 3 7 
15 2 1 7 2 3 3 1 6 3 3 4 1 2 2 6 3 5 2 1 7 2 3 2 2 4 4 7 2 2 4 4 6 3 1 1 2 2 3 3 2 1 7 2 3 2 2 6 3 5 2 1 2 3 3 2 1 3 3 2 2 2 6 3 6 2 2 7 3 1 3 1 6 2 6 3 5 2 1 6 3 6 
15 2 2 1 4 4 3 1 4 3 3 4 3 2 2 6 3 5 2 3 2 4 2 2 1 1 2 1 2 2 5 4 1 2 1 3 4 4 2 1 3 4 1 2 1 4 4 3 2 3 5 4 2 2 3 5 4 6 2 2 3 4 7 3 2 3 3 1 4 6 2 3 7 4 3 2 2 7 3 4 
15 2 2 3 3 4 3 1 5 2 6 3 2 2 1 5 2 2 2 1 1 3 4 2 2 3 4 1 2 3 4 4 1 2 3 2 4 1 2 3 4 4 1 2 1 4 2 1 2 2 1 3 5 2 2 2 3 4 3 2 7 3 1 4 5 2 2 3 4 1 3 2 1 3 2 4 3 2 3 2 4 2 
0 2 2 8 
0 1 6 
1 0 1 5 
0 1 4 
1 3 2 10 14 
1 2 1 9 
1 1 1 7 
1 6 1 12 
1 0 1 12 
1 5 1 13 
1 4 2 11 13 
1 10 0 
2 7 8 1 13 
3 9 12 10 0 
1 4 0 
0 2 16 18 
1 15 1 22 
0 1 18 
2 15 17 1 23 
0 2 20 21 
1 19 1 23 
1 19 1 24 
1 16 2 25 27 
2 18 20 1 26 
1 21 1 28 
1 22 1 28 
1 23 1 29 
1 22 1 29 
2 25 24 0 
2 26 27 0 
0 2 34 36 
0 1 34 
0 1 33 
1 32 1 44 
2 30 31 2 35 44 
1 34 2 37 38 
1 30 1 39 
1 35 1 41 
1 35 1 40 
1 36 1 42 
1 38 1 43 
1 37 1 43 
1 39 1 43 
3 40 41 42 0 
2 34 33 0 
0 2 47 48 
0 2 47 51 
2 46 45 1 49 
1 45 1 54 
1 47 2 50 58 
1 49 1 52 
1 46 1 53 
1 50 1 55 
1 51 1 56 
1 48 1 56 
1 52 0 
2 53 54 0 
0 1 58 
2 49 57 1 59 
1 58 0 
0 1 67 
0 2 62 64 
1 61 2 63 72 
1 62 1 68 
1 61 1 65 
1 64 2 69 70 
0 1 67 
2 60 66 1 72 
1 63 1 71 
1 65 1 73 
1 65 1 71 
2 70 68 1 74 
2 67 62 1 74 
1 69 0 
2 71 72 0 
0 3 76 77 87 
1 75 1 78 
1 75 2 80 81 
1 76 1 79 
1 78 2 82 85 
1 77 1 84 
1 77 2 83 84 
1 79 1 89 
1 81 1 86 
2 81 80 1 86 
1 79 1 89 
2 83 84 0 
1 75 1 88 
1 87 1 89 
3 82 85 88 0 
0 1 92 
0 2 93 96 
1 90 1 101 
1 91 3 94 99 101 
1 93 1 95 
1 94 1 104 
1 91 1 97 
1 96 1 100 
0 1 103 
1 93 1 102 
1 97 0 
2 92 93 1 103 
1 99 0 
2 98 101 0 
1 95 0 
0 2 108 109 
0 1 107 
1 106 1 113 
1 105 1 110 
1 105 1 114 
1 108 1 111 
1 110 2 112 117 
1 111 1 118 
1 107 1 116 
1 109 1 116 
0 1 117 
2 113 114 2 118 119 
2 111 115 0 
2 116 112 0 
1 116 0 
